data/rand/rand_022.gr
p tdp 15 48
1 2
1 9
1 10
1 11
1 12
1 13
1 14
1 15
2 3
2 8
2 9
2 13
2 14
3 7
3 8
3 10
3 13
4 6
4 8
4 9
5 10
5 13
5 14
6 7
6 9
6 13
6 14
7 9
7 10
7 11
7 13
7 14
7 15
8 10
8 12
8 14
8 15
9 10
9 12
9 14
10 11
10 12
10 14
11 12
11 15
12 13
13 14
13 15
