solutions/best/rand/rand_022.sol
9
0
10
2
7
10
4
14
1
8
7
10
11
9
13
11
